decision_x1=[0,2];
decision_x2=[0,2];
decision_x3=[0,2];
decision_x4=[0,2];
decision_x5=[0,2];
random_y1=[0,2];
constraint_x3_x2=[
0,1,2.3|
0,2,2|
1,0,6.1|
1,2,7.8|
2,0,5.1|
2,1,4.9|
];
constraint_x4_x1=[
0,1,0.16|
0,2,9.2|
1,0,4.8|
1,2,8.6|
2,0,1|
2,1,3|
];
constraint_x4_x3=[
0,1,7.9|
0,2,3.3|
1,0,7.8|
1,2,0.39|
2,0,9.2|
2,1,6.5|
];
constraint_x5_x2=[
0,1,9.9|
0,2,3.7|
1,0,1.8|
1,2,9.2|
2,0,0.31|
2,1,9|
];
constraint_x5_x4=[
0,1,9.6|
0,2,7|
1,0,8.5|
1,2,0.86|
2,0,0.31|
2,1,1.7|
];
constraint_x1_y1=[
0,0,7.2|
0,1,7|
0,2,7.3|
1,0,1.1|
1,1,8.7|
1,2,2.9|
2,0,9.7|
2,1,0.33|
2,2,5.1|
];
initial_distribution_y1=[0.3,0.37,0.33];
transition_y1=[
0.24,0.33,0.43|
0.23,0.43,0.34|
0.43,0.38,0.19|
];
